multiobj/solutions/Ter.6.4.1.00.2.out
1 4
4 0 3 2 5 1 
4910548 4910548 4910548 4910548 
